
--- Job M-2F.gms Start 03/16/23 13:22:09 41.2.0 5110e5ff WEX-WEI x86 64bit/MS Windows
--- Applying:
    D:\GAMS\41\gmsprmNT.txt
--- GAMS Parameters defined
    Input "G:\Mi unidad\5. TFG\src\gams\M-2F.gms"
    PageSize 0
    ScrDir "G:\Mi unidad\5. TFG\src\gams\225a\"
    SysDir D:\GAMS\41\
    LogOption 3
    ErrMsg 1
    ErrorLog 99
    IDE 1
    LstTitleLeftAligned 1
Licensee: GAMS Demo license for Antonio Sevilla Sastre   G221121|0002CO-GEN
          UCM, Spain                                               DL079880
          C:\Users\Antonio\Documents\GAMS\gamslice.txt
          antsev01@ucm.es, Antonio Sevilla Sastre                          
          Demo license for demonstration and instructional purposes only
Processor information: 1 socket(s), 14 core(s), and 20 thread(s) available
GAMS 41.2.0   Copyright (C) 1987-2022 GAMS Development. All rights reserved
--- Starting compilation
--- M-2F.gms(171) 3 Mb
--- Starting execution: elapsed 0:00:00.031
--- Generating MIP model modelo1
--- M-2F.gms(169) 4 Mb
---   824 rows  382 columns  2,380 non-zeroes
---   350 discrete-columns
--- Range statistics (absolute non-zero finite values)
--- RHS       [min, max] : [ 1.000E+00, 9.900E+01] - Zero values observed as well
--- Bound     [min, max] : [ 1.000E+00, 1.000E+00] - Zero values observed as well
--- Matrix    [min, max] : [ 1.000E-03, 9.900E+01]
--- Executing CPLEX (Solvelink=2): elapsed 0:00:00.142

IBM ILOG CPLEX   41.2.0 5110e5ff Nov 14, 2022          WEI x86 64bit/MS Window

--- *** This solver runs with a demo license. No commercial use.
--- GMO setup time: 0.00s
--- Space for names approximately 0.03 Mb
--- Use option 'names no' to turn use of names off
--- GMO memory 0.64 Mb (peak 0.64 Mb)
--- Dictionary memory 0.00 Mb
--- Cplex 22.1.0.0 link memory 0.02 Mb (peak 0.09 Mb)
--- Starting Cplex

Version identifier: 22.1.0.0 | 2022-03-09 | 1a383f8ce
CPXPARAM_Advance                                 0
CPXPARAM_Threads                                 1
CPXPARAM_MIP_Display                             4
CPXPARAM_MIP_Pool_Capacity                       0
CPXPARAM_MIP_Tolerances_AbsMIPGap                0
Generic callback                                 0x50
Found incumbent of value 49.000000 after 0.00 sec. (0.04 ticks)
Tried aggregator 2 times.
MIP Presolve eliminated 775 rows and 332 columns.
MIP Presolve added 47 rows and 47 columns.
MIP Presolve modified 25 coefficients.
Aggregator did 54 substitutions.
Reduced MIP has 41 rows, 43 columns, and 156 nonzeros.
Reduced MIP has 3 binaries, 26 generals, 0 SOSs, and 0 indicators.
Presolve time = 0.00 sec. (1.22 ticks)
Probing time = 0.00 sec. (0.00 ticks)
Tried aggregator 2 times.
MIP Presolve eliminated 14 rows and 14 columns.
MIP Presolve added 2 rows and 2 columns.
MIP Presolve modified 19 coefficients.
Aggregator did 12 substitutions.
Reduced MIP has 17 rows, 19 columns, and 63 nonzeros.
Reduced MIP has 6 binaries, 12 generals, 0 SOSs, and 0 indicators.
Presolve time = 0.00 sec. (0.12 ticks)
Probing fixed 0 vars, tightened 1 bounds.
Probing time = 0.00 sec. (0.01 ticks)
Tried aggregator 2 times.
Detecting symmetries...
MIP Presolve eliminated 1 rows and 0 columns.
MIP Presolve modified 3 coefficients.
Aggregator did 1 substitutions.
Reduced MIP has 15 rows, 18 columns, and 51 nonzeros.
Reduced MIP has 6 binaries, 12 generals, 0 SOSs, and 0 indicators.
Presolve time = 0.00 sec. (0.06 ticks)
Probing time = 0.00 sec. (0.01 ticks)
Clique table members: 6.
MIP emphasis: balance optimality and feasibility.
MIP search method: dynamic search.
Parallel mode: none, using 1 thread.
Tried aggregator 1 time.
LP Presolve eliminated 6 rows and 6 columns.
Reduced LP has 9 rows, 12 columns, and 32 nonzeros.
Presolve time = 0.00 sec. (0.01 ticks)
Initializing dual steep norms . . .

Iteration log . . .
Iteration:     1   Dual objective     =            35.000000
Initializing dual steep norms . . .
Root relaxation solution time = 0.00 sec. (0.03 ticks)

        Nodes                                         Cuts/
   Node  Left     Objective  IInf  Best Integer    Best Bound    ItCnt     Gap

*     0+    0                           49.0000       35.0000            28.57%
Found incumbent of value 49.000000 after 0.02 sec. (1.59 ticks)
      0     0       35.0000     3       49.0000       35.0000        4   28.57%
*     0+    0                           35.0000       35.0000             0.00%
Found incumbent of value 35.000000 after 0.02 sec. (1.61 ticks)
      0     0        cutoff             35.0000       35.0000        6    0.00%
Elapsed time = 0.02 sec. (1.61 ticks, tree = 0.01 MB)

Root node processing (before b&c):
  Real time             =    0.02 sec. (1.62 ticks)
Sequential b&c:
  Real time             =    0.00 sec. (0.00 ticks)
                          ------------
Total (root+branch&cut) =    0.02 sec. (1.62 ticks)

--- MIP status (101): integer optimal solution.
--- Cplex Time: 0.02sec (det. 1.62 ticks)

--- Fixing integer variables and solving final LP...

Version identifier: 22.1.0.0 | 2022-03-09 | 1a383f8ce
CPXPARAM_Advance                                 2
CPXPARAM_Threads                                 1
CPXPARAM_MIP_Display                             4
CPXPARAM_MIP_Pool_Capacity                       0
CPXPARAM_MIP_Tolerances_AbsMIPGap                0
Tried aggregator 1 time.
LP Presolve eliminated 823 rows and 382 columns.
All rows and columns eliminated.
Presolve time = 0.00 sec. (0.31 ticks)

--- Fixed MIP status (1): optimal.
--- Cplex Time: 0.00sec (det. 0.57 ticks)


Proven optimal solution
MIP Solution:           35.000000    (6 iterations, 0 nodes)
Final Solve:            35.000000    (0 iterations)

Best possible:          35.000000
Absolute gap:            0.000000
Relative gap:            0.000000

--- Reading solution for model modelo1
--- Executing after solve: elapsed 0:00:00.221
--- Generating MIP model modelo1
--- M-2F.gms(170) 4 Mb
---   824 rows  382 columns  2,380 non-zeroes
---   350 discrete-columns
--- Range statistics (absolute non-zero finite values)
--- RHS       [min, max] : [ 1.000E+00, 9.900E+01] - Zero values observed as well
--- Bound     [min, max] : [ 1.000E+00, 1.000E+00] - Zero values observed as well
--- Matrix    [min, max] : [ 1.000E-03, 9.900E+01]
--- Executing CPLEX (Solvelink=2): elapsed 0:00:00.314

IBM ILOG CPLEX   41.2.0 5110e5ff Nov 14, 2022          WEI x86 64bit/MS Window

--- *** This solver runs with a demo license. No commercial use.
--- GMO setup time: 0.00s
--- Space for names approximately 0.03 Mb
--- Use option 'names no' to turn use of names off
--- GMO memory 0.64 Mb (peak 0.64 Mb)
--- Dictionary memory 0.00 Mb
--- Cplex 22.1.0.0 link memory 0.02 Mb (peak 0.09 Mb)
--- Starting Cplex

Version identifier: 22.1.0.0 | 2022-03-09 | 1a383f8ce
CPXPARAM_Advance                                 0
CPXPARAM_Threads                                 1
CPXPARAM_MIP_Display                             4
CPXPARAM_MIP_Pool_Capacity                       0
CPXPARAM_MIP_Tolerances_AbsMIPGap                0
Generic callback                                 0x50
Found incumbent of value 0.000000 after 0.00 sec. (0.04 ticks)
Tried aggregator 2 times.
MIP Presolve eliminated 775 rows and 330 columns.
MIP Presolve added 47 rows and 47 columns.
MIP Presolve modified 25 coefficients.
Aggregator did 54 substitutions.
Reduced MIP has 41 rows, 45 columns, and 156 nonzeros.
Reduced MIP has 6 binaries, 26 generals, 0 SOSs, and 0 indicators.
Presolve time = 0.00 sec. (1.23 ticks)
Probing time = 0.00 sec. (0.00 ticks)
Tried aggregator 2 times.
MIP Presolve eliminated 14 rows and 14 columns.
MIP Presolve added 2 rows and 2 columns.
MIP Presolve modified 22 coefficients.
Aggregator did 12 substitutions.
Reduced MIP has 17 rows, 21 columns, and 63 nonzeros.
Reduced MIP has 9 binaries, 11 generals, 0 SOSs, and 0 indicators.
Presolve time = 0.00 sec. (0.12 ticks)
Probing time = 0.00 sec. (0.02 ticks)
Tried aggregator 2 times.
Detecting symmetries...
MIP Presolve modified 3 coefficients.
Aggregator did 1 substitutions.
Reduced MIP has 16 rows, 20 columns, and 53 nonzeros.
Reduced MIP has 9 binaries, 11 generals, 0 SOSs, and 0 indicators.
Presolve time = 0.00 sec. (0.06 ticks)
Probing time = 0.00 sec. (0.02 ticks)
Clique table members: 17.
MIP emphasis: balance optimality and feasibility.
MIP search method: dynamic search.
Parallel mode: none, using 1 thread.
Tried aggregator 1 time.
LP Presolve eliminated 2 rows and 2 columns.
Reduced LP has 14 rows, 18 columns, and 47 nonzeros.
Presolve time = 0.00 sec. (0.01 ticks)
Initializing dual steep norms . . .

Iteration log . . .
Iteration:     1   Dual objective     =             3.000000
Initializing dual steep norms . . .
Root relaxation solution time = 0.00 sec. (0.03 ticks)

        Nodes                                         Cuts/
   Node  Left     Objective  IInf  Best Integer    Best Bound    ItCnt     Gap

*     0+    0                            0.0000        3.0000              --- 
Found incumbent of value 0.000000 after 0.00 sec. (1.63 ticks)
      0     0        3.0000     6        0.0000        3.0000        5     --- 
*     0+    0                            1.0000        3.0000           200.00%
Found incumbent of value 1.000000 after 0.00 sec. (1.66 ticks)
*     0     0      integral     0        2.0000       Cuts: 7        8    0.00%
Found incumbent of value 2.000000 after 0.00 sec. (1.74 ticks)
      0     0        cutoff              2.0000        2.0000        8    0.00%
Elapsed time = 0.00 sec. (1.74 ticks, tree = 0.01 MB)

Implied bound cuts applied:  2
Zero-half cuts applied:  2
Gomory fractional cuts applied:  2

Root node processing (before b&c):
  Real time             =    0.00 sec. (1.74 ticks)
Sequential b&c:
  Real time             =    0.00 sec. (0.00 ticks)
                          ------------
Total (root+branch&cut) =    0.00 sec. (1.74 ticks)

--- MIP status (101): integer optimal solution.
--- Cplex Time: 0.00sec (det. 1.74 ticks)

--- Fixing integer variables and solving final LP...

Version identifier: 22.1.0.0 | 2022-03-09 | 1a383f8ce
CPXPARAM_Advance                                 2
CPXPARAM_Threads                                 1
CPXPARAM_MIP_Display                             4
CPXPARAM_MIP_Pool_Capacity                       0
CPXPARAM_MIP_Tolerances_AbsMIPGap                0
Tried aggregator 1 time.
LP Presolve eliminated 823 rows and 382 columns.
All rows and columns eliminated.
Presolve time = 0.00 sec. (0.31 ticks)

--- Fixed MIP status (1): optimal.
--- Cplex Time: 0.00sec (det. 0.58 ticks)


Proven optimal solution
MIP Solution:            2.000000    (8 iterations, 0 nodes)
Final Solve:             2.000000    (0 iterations)

Best possible:           2.000000
Absolute gap:            0.000000
Relative gap:            0.000000

--- Reading solution for model modelo1
*** Status: Normal completion
--- Job M-2F.gms Stop 03/16/23 13:22:09 elapsed 0:00:00.432
